NAME: clu_20_8
TYPE: TSP
DIMENSION: 20
EDGE_WEIGHT_TYPE: EUC_2D
NODE_COORD_SECTION
1 86 92
2 48 40
3 71 42
4 86 66
5 89 82
6 96 81
7 85 91
8 29 -16
9 25 7
10 38 7
11 45 4
12 44 28
13 59 20
14 73 86
15 37 14
16 49 5
17 55 20
18 56 9
19 73 96
20 61 55
EOF
